(set-info :smt-lib-version 2.6)
(set-logic QF_BV)
(set-info :source |
 Patrice Godefroid, SAGE (systematic dynamic test generation)
 For more information: http://research.microsoft.com/en-us/um/people/pg/public_psfiles/ndss2008.pdf
|)
(set-info :category "industrial")
(set-info :status sat)
(declare-fun T4_615 () (_ BitVec 32))
(declare-fun T1_615 () (_ BitVec 8))
(declare-fun T1_616 () (_ BitVec 8))
(declare-fun T1_617 () (_ BitVec 8))
(declare-fun T1_618 () (_ BitVec 8))
(assert (and true (= T4_615 (bvor (bvshl (bvor (bvshl (bvor (bvshl ((_ zero_extend 24) T1_618) (_ bv8 32)) ((_ zero_extend 24) T1_617)) (_ bv8 32)) ((_ zero_extend 24) T1_616)) (_ bv8 32)) ((_ zero_extend 24) T1_615))) (= T4_615 (_ bv825307737 32)) (not (= T4_615 (_ bv808596553 32))) (not (= T4_615 (_ bv3 32))) (not (= T4_615 (_ bv0 32))) (not (= T4_615 (_ bv844715353 32))) (bvule T4_615 (_ bv844715353 32))))
(check-sat)
(exit)
